&control
        calculation = 'scf',
        prefix = 'sn.beta',
        tstress = .true.,
/
&system
        ibrav = 0,
        celldm(1) = 11.07803293,
        nat = 2,
        ntyp = 1,
        ecutwfc = 50,
        ecutrho = 400,
        occupations = 'smearing',
        smearing = 'm-v',
        nr1=80,
        nr2=80,
        nr3=80,
        degauss = 0.02,
/
&electrons
        mixing_beta = 0.7,
        conv_thr = 1.0d-10,
/
CELL_PARAMETERS {alat}
 1.000000000   0.000000000   0.000000000
 0.000000000   1.000000000   0.000000000
 0.500000000   0.500000000   0.269532635
ATOMIC_SPECIES
 Sn 118.71 sn_pbe_v1.4.uspp.F.UPF
ATOMIC_POSITIONS crystal
 Sn 0.625000000   0.875000000   0.750000000
 Sn 0.375000000   0.125000000   0.250000000
K_POINTS automatic
 12 12 20       1 1 1
