&control 
	calculation = 'vc-relax',
	prefix = 'sn.alpha.relax',
/
&system
	ibrav = 2,
	celldm(1) = 12.393013045439998,
	nat = 2,
	ntyp = 1,
	ecutwfc = 50,
	ecutrho = 400,
/
&electrons
	mixing_beta = 0.7,
	conv_thr = 1.0d-10,
/
&IONS
	ion_dynamics = 'bfgs',
/
&CELL
	cell_dynamics = 'bfgs',
	press = 0,
	press_conv_thr = 0.3D0
/
ATOMIC_SPECIES
 Sn 118.71 sn_pbe_v1.4.uspp.F.UPF
ATOMIC_POSITIONS crystal
 Sn 0.0 0.0 0.0
 Sn 0.25 0.25 0.25
K_POINTS automatic
 16 16 16 1 1 1
